c This is an instance of the exact track of PACE 2020 Challenge, see https://pacechallenge.org/2020/ 
c TYPE: infrastructure 
c ORIGIN: Open street maps 
c DESCRIPTION: Sienno (Poland): a road network downloaded from open street maps using osmnx Python package 
p tdp 80 98
1 27
1 33
1 12
2 31
2 24
3 15
3 13
3 6
4 58
4 33
4 11
5 22
5 78
6 9
6 19
7 34
7 33
7 12
8 60
8 63
9 31
9 39
10 11
10 80
12 48
13 70
13 16
14 48
14 36
14 59
15 28
15 17
16 19
16 74
17 25
17 51
18 25
18 26
18 53
19 78
20 29
20 27
21 30
23 24
24 62
24 64
25 26
26 27
28 32
28 36
29 30
30 31
34 35
34 36
35 66
35 59
36 67
36 66
37 45
37 38
37 44
38 41
38 47
38 46
39 63
39 54
40 42
40 41
40 55
40 54
41 46
42 56
42 44
43 44
43 56
43 45
45 47
46 47
48 52
49 52
50 52
54 55
55 56
57 58
59 67
60 61
63 64
64 65
66 67
68 70
68 77
69 70
71 72
72 76
73 74
74 76
75 76
78 79
